155 35 61 43 60 24 147 8 116 162 154 171 161 109 169 174 119 96 179 68 53 27 199 80 36 181 178 176 186 151 114 113 131 139 127 158 122 76 48 51 100 13 32 153 45 84 50 156 30 38 103 165 42 188 189 26 12 180 121 120 133 104 146 88 194 192 28 198 10 14 16 89 31 168 97 57 33 124 145 85 167 166 190 152 118 34 101 182 184 172 65 148 23 115 157 187 112 55 21 41 196 6 73 108 91 17 7 37 87 78 81 40 129 49 72 137 130 19 142 193 107 56 117 69 83 102 140 1 46 144 77 106 128 111 197 170 110 86 177 5 159 67 173 11 105 132 160 9 54 29 3 22 185 0 138 93 66 125 123 58 98 39 141 163 92 52 2 20 47 62 63 79 135 183 15 136 44 150 94 149 75 95 82 25 90 164 99 143 195 126 70 74 175 71 134 64 4 18 59 191